CMD:
./solvers/bin/cadical --plain --no-reduce -t 1600 ./data/cnfs//pdtvisvending00/pdtvisvending00.32.cnf

c --- [ banner ] -------------------------------------------------------------
c 
c CaDiCaL SAT Solver
c Copyright (c) 2016-2024
c A. Biere, M. Fleury, N. Froleyks, K. Fazekas, F. Pollitt, T. Faller
c JKU Linz, University of Freiburg, TU Wien
c 
c Version 2.1.3 5296d3d2a9bf48c154ab2acb5e44625776d821bf
c g++ (Gentoo 12.3.1_p20230526 p2) 12.3.1 20230526 -Wall -Wextra -O3 -DNDEBUG
c Sat Aug 9 07:26:21 PDT 2025 Linux cedar2.int.cedar.computecanada.ca 5.14.0-362.24.2.el9_3.x86_64 x86_64
c 
c --- [ limit ] --------------------------------------------------------------
c 
c setting time limit to 1600 seconds real time (due to '-t 1600')
c 
c --- [ parsing input ] ------------------------------------------------------
c 
c reading DIMACS file from './data/cnfs//pdtvisvending00/pdtvisvending00.32.cnf'
c opening file to read './data/cnfs//pdtvisvending00/pdtvisvending00.32.cnf'
c found 'p cnf 31813 95074' header
c parsed 95074 clauses in 0.02 seconds process time
c 
c --- [ options ] ------------------------------------------------------------
c 
c   --compact=false                (different from default 'true')
c   --decompose=false              (different from default 'true')
c   --deduplicate=false            (different from default 'true')
c   --elim=false                   (different from default 'true')
c   --probe=false                  (different from default 'true')
c   --reduce=false                 (different from default 'true')
c   --subsume=false                (different from default 'true')
c   --ternary=false                (different from default 'true')
c   --transred=false               (different from default 'true')
c   --vivify=false                 (different from default 'true')
c 
c --- [ solving ] ------------------------------------------------------------
c 
c time measured in process time since initialization
c 
c  seconds  reductions  redundant  irredundant
c         MB    restarts       trail      variables
c          level   conflicts       glue        remaining
c 
c *  0.02 18  0 0   0    0    0  0% 0 92529 29866 94%
c {  0.02 18  0 0   0    0    0  0% 0 92529 29866 94%
c i  0.03 18 14 0   0   16   14 10% 2 92529 29865 94%
c i  0.03 18 11 0   0   22   18 10% 2 92529 29863 94%
c i  0.06 19 65 0  53  686  636 44% 2 92529 29808 94%
c i  0.06 19 67 0  53  710  658 45% 2 92529 29800 94%
c i  0.06 19 75 0  53  824  761 51% 2 92529 29769 94%
c i  0.07 19 71 0  72  896  822 49% 3 92529 29625 93%
c }  0.08 19 64 0  95 1000  914 45% 3 92529 29616 93%
c [  0.08 19  0 0  95 1000  914  0% 0 92529 29616 93%
c O  0.08 19 56 0  95 1006  917 78% 5 92529 29616 93%
c ]  0.22 20 70 0  96 3000 2754 55% 5 92529 29616 93%
c {  0.22 20 64 0  96 3000 2754 45% 3 92529 29616 93%
c F  0.22 20 64 0  99 3009 2763 45% 3 92529 29616 93%
c i  0.29 20 45 0 266 3698 3407 36% 3 92529 29615 93%
c i  0.35 20 40 0 372 4249 3918 36% 4 92529 29614 93%
c i  0.52 20 33 0 571 5970 5507 37% 4 92529 29605 93%
c #  0.52 20 32 0 577 6010 5540 37% 4 92529 29605 93%
c }  0.61 20 31 0 689 7002 6405 39% 4 92529 29605 93%
c [  0.61 20 70 0 689 7002 6405 55% 5 92529 29605 93%
c 
c  seconds  reductions  redundant  irredundant
c         MB    restarts       trail      variables
c          level   conflicts       glue        remaining
c 
c i  0.83 21 43 0 691 9527 8617 47% 5 92529 29585 93%
c I  0.88 21 41 0 691 10011 9058 46% 5 92529 29585 93%
c i  0.91 21 39 0 692 10464 9413 44% 5 92529 29398 92%
c i  1.00 21 36 0 693 11363 10212 44% 5 92529 29225 92%
c i  1.01 21 36 0 693 11452 10282 43% 5 92529 29003 91%
c i  1.01 21 36 0 693 11457 10283 43% 5 92529 28973 91%
c i  1.01 21 36 0 693 11458 10283 43% 5 92529 28936 91%
c ]  1.01 21 36 0 693 11461 10283 43% 5 92529 28403 89%
c 0  1.01 21 36 0 693 11461 10283 43% 5 92529 28403 89%
c 
c --- [ result ] -------------------------------------------------------------
c 
s UNSATISFIABLE
c 
c --- [ run-time profiling ] -------------------------------------------------
c 
c process time taken by individual solving procedures
c (percentage relative to process time for solving)
c 
c         0.99   99.99% search
c         0.54   54.20% stable
c         0.45   45.56% unstable
c         0.02    2.14% parse
c         0.00    0.23% lucky
c         0.00    0.00% simplify
c   =================================
c         0.99   97.84% solve
c 
c last line shows process time for solving
c (percentage relative to total process time)
c 
c --- [ statistics ] ---------------------------------------------------------
c 
c chronological:              3926        34.26 %  of conflicts
c conflicts:                 11461     11582.93    per second
c decisions:                 28373     28674.86    per second
c fixed:                      3410        10.72 %  of all variables
c learned:                   11077        96.65 %  per conflict
c learned_lits:             219059       100.00 %  learned literals
c minimized:                     0         0.00 %  learned literals
c shrunken:                  31726        14.48 %  learned literals
c minishrunken:              47158        21.53 %  learned literals
c otfs:                         97         0.85 %  of conflict
c propagations:           14401175        14.55 M  per second
c rephased:                      4      2865.25    interval
c restarts:                    693        16.54    interval
c stabilizing:                   2        56.34 %  of conflicts
c subsumed:                    779         0.75 %  of all clauses
c strengthened:                 95         0.09 %  of all clauses
c 
c seconds are measured in process time for solving
c 
c --- [ resources ] ----------------------------------------------------------
c 
c total process time since initialization:         1.01    seconds
c total real time since initialization:            1.02    seconds
c maximum resident set size of process:           30.07    MB
c 
c --- [ shutting down ] ------------------------------------------------------
c 
c exit 20
